\* Problem: Unknown *\

Maximize
 obj: + xp_0_0 + xp_0_1 + xp_1_0 + xp_2_0 + xp_2_1 + xp_3_0 + xp_3_1
 + xp_3_2 + xp_4_0 + xp_5_0 + xp_6_0 + xp_6_1 + xp_7_0 + xp_8_0 + xp_9_0
 + xp_10_0 + xp_10_1 + xp_10_2 + xp_10_3 + xp_11_0 + xp_12_0 + xp_12_1
 + xp_12_2 + xp_13_0 + xp_14_0 + xp_15_0 + xp_15_1 + xp_16_0 + xp_17_0
 + xp_17_1 + xp_17_2 + xp_18_0 + xp_18_1 + xp_19_0 + xp_20_0 + xp_21_0
 + xp_21_1 + xp_21_2 + xp_21_3 + xp_22_0 + xp_22_1 + xp_22_2 + xp_23_0
 + xp_24_0 + xp_24_1 + xp_24_2 + xp_25_0 + xp_26_0 + xp_27_0 + xp_28_0
 + xp_28_1 + xp_29_0 + xp_30_0 + xp_31_0 + xp_31_1 + xp_32_0 + xp_33_0
 + xp_34_0 + xp_35_0 + xp_36_0 + xp_37_0 + xp_38_0 + xp_38_1 + xp_39_0
 + xp_40_0 + xp_41_0 + xp_42_0 + xp_42_1 + xp_43_0 + xp_44_0 + xp_44_1
 + xp_45_0 + xp_46_0 + xp_47_0 + xp_48_0 + xp_48_1 + xp_49_0 + xp_50_0
 + xp_51_0 + xp_52_0 + xp_52_1 + xp_53_0 + xp_54_0 + xp_55_0 + xp_56_0
 + xp_57_0 + xp_58_0 + xp_58_1 + xp_59_0 + xp_60_0 + xp_60_1 + xp_61_0
 + xp_62_0 + xp_63_0 + xp_63_1 + xp_64_0 + xp_65_0

Subject To
 r_1: + xp_60_1 + xp_53_0 + xp_51_0 + xp_40_0 + xp_35_0 + xp_33_0
 <= 153.637538779731
 r_2: + xp_58_1 + xp_24_1 + xp_15_1 <= 153.637538779731
 r_3: + xp_56_0 + xp_21_0 + xp_12_0 <= 152.393669634026
 r_4: + xp_65_0 + xp_50_0 + xp_45_0 + xp_24_2 + xp_24_0 + xp_21_2
 + xp_15_0 + xp_12_2 + xp_10_1 + xp_10_0 + xp_5_0 + xp_2_1
 <= 140.385468663339
 r_5: + xp_38_0 + xp_31_1 + xp_17_0 + xp_14_0 <= 153.637538779731
 r_6: + xp_52_1 + xp_22_2 + xp_22_0 + xp_21_3 + xp_21_1 + xp_17_2
 + xp_13_0 + xp_12_1 + xp_10_3 + xp_3_2 + xp_3_0 + xp_2_0
 <= 147.508123476848
 r_7: + xp_48_1 + xp_46_0 + xp_42_1 + xp_42_0 + xp_0_0
 <= 151.25355450237
 r_8: 0 xp_0_0 <= 148.340353833193
 r_9: + xp_64_0 + xp_63_1 + xp_25_0 + xp_24_1 + xp_21_0 + xp_6_0 <= 155
 r_10: + xp_63_0 <= 150.204731574158
 r_11: + xp_60_0 + xp_38_1 + xp_31_0 <= 153.637538779731
 r_12: + xp_62_0 + xp_61_0 + xp_60_1 + xp_22_1 + xp_10_2 + xp_3_1
 <= 147.508123476848
 r_13: + xp_64_0 + xp_59_0 + xp_58_1 + xp_56_0 + xp_29_0 + xp_24_1
 + xp_21_0 + xp_20_0 + xp_15_1 + xp_12_0 <= 153.637538779731
 r_14: + xp_60_1 + xp_57_0 + xp_53_0 + xp_42_1 + xp_35_0 + xp_18_0
 <= 155
 r_15: + xp_63_1 + xp_58_0 <= 151.25355450237
 r_16: + xp_65_0 + xp_55_0 + xp_53_0 + xp_51_0 + xp_50_0 + xp_44_1
 + xp_10_1 + xp_10_0 <= 153.637538779731
 r_17: + xp_58_1 + xp_54_0 + xp_52_1 + xp_36_0 + xp_31_1
 <= 140.385468663339
 r_18: + xp_52_0 + xp_21_2 + xp_12_2 + xp_2_1 <= 152.393669634026
 r_19: + xp_60_0 + xp_48_0 <= 148.340353833193
 r_20: + xp_50_0 + xp_49_0 + xp_48_1 + xp_46_0 + xp_45_0 + xp_22_2
 + xp_21_1 + xp_10_3 + xp_10_1 + xp_3_2 <= 153.637538779731
 r_21: + xp_47_0 + xp_26_0 + xp_22_1 + xp_17_1 + xp_17_0 + xp_10_2
 + xp_7_0 + xp_3_1 <= 153.637538779731
 r_22: + xp_61_0 + xp_43_0 + xp_42_1 + xp_42_0 + xp_38_0
 <= 147.508123476848
 r_23: + xp_56_0 + xp_52_1 + xp_52_0 + xp_41_0 + xp_38_1 + xp_34_0
 + xp_31_0 + xp_17_2 <= 147.508123476848
 r_24: + xp_62_0 + xp_60_1 + xp_44_1 + xp_44_0 + xp_40_0 + xp_39_0
 + xp_21_3 + xp_21_1 + xp_12_1 + xp_10_3 + xp_10_2 + xp_2_0
 <= 152.393669634026
 r_25: + xp_62_0 + xp_60_1 + xp_44_0 + xp_40_0 + xp_37_0 + xp_35_0
 + xp_33_0 + xp_10_3 + xp_10_2 <= 152.393669634026
 r_26: + xp_44_1 + xp_39_0 + xp_36_0 + xp_32_0 + xp_31_1
 <= 152.393669634026
 r_27: + xp_56_0 + xp_52_0 + xp_34_0 + xp_31_0 + xp_30_0
 <= 152.393669634026
 r_28: + xp_60_0 + xp_48_1 + xp_48_0 + xp_42_0 + xp_27_0 + xp_25_0
 + xp_24_1 + xp_21_0 + xp_18_1 + xp_8_0 + xp_6_0 <= 150.204731574158
 r_29: + xp_29_0 + xp_28_0 + xp_24_2 + xp_22_0 + xp_6_1 + xp_0_1
 <= 151.25355450237
 r_30: + xp_63_0 + xp_28_1 + xp_26_0 + xp_24_0 + xp_23_0 + xp_22_2
 + xp_22_1 + xp_21_3 + xp_21_2 + xp_21_1 + xp_17_1 <= 148.340353833193
 r_31: + xp_63_1 + xp_58_0 + xp_28_0 + xp_24_2 + xp_22_0 + xp_19_0
 + xp_17_2 + xp_17_0 + xp_15_0 + xp_14_0 + xp_13_0 + xp_12_2 + xp_12_1
 <= 151.25355450237
 r_32: + xp_46_0 + xp_42_1 + xp_29_0 + xp_20_0 + xp_18_0 + xp_16_0
 + xp_15_1 + xp_12_0 + xp_6_1 <= 151.25355450237
 r_33: + xp_48_1 + xp_42_0 + xp_18_1 + xp_17_1 + xp_11_0
 <= 151.25355450237
 r_34: + xp_26_0 + xp_23_0 + xp_22_2 + xp_22_1 + xp_21_1 + xp_17_1
 + xp_10_3 + xp_10_2 + xp_10_1 + xp_7_0 + xp_4_0 + xp_3_2 + xp_3_1
 <= 148.340353833193
 r_35: + xp_60_0 + xp_48_0 + xp_8_0 + xp_6_1 + xp_6_0 + xp_1_0 + xp_0_1
 <= 148.340353833193
 r_36: + xp_63_0 + xp_28_1 + xp_24_0 + xp_21_3 + xp_21_2 + xp_10_0
 + xp_9_0 + xp_5_0 + xp_3_0 + xp_2_1 + xp_2_0 + xp_0_0
 <= 148.340353833193

Bounds
 0 <= xp_0_0 <= 4.68968192397207
 0 <= xp_0_1 <= 23.4484096198604
 0 <= xp_1_0 <= 22.7990690457719
 0 <= xp_2_0 <= 16.7385570209465
 0 <= xp_2_1 <= 8.36927851047323
 0 <= xp_3_0 <= 9.71605896043445
 0 <= xp_3_1 <= 2.42901474010861
 0 <= xp_3_2 <= 2.42901474010861
 0 <= xp_4_0 <= 28.5709852598914
 0 <= xp_5_0 <= 22.7990690457719
 0 <= xp_6_0 <= 13.1311093871218
 0 <= xp_6_1 <= 13.1311093871218
 0 <= xp_7_0 <= 22.22187742436
 0 <= xp_8_0 <= 25.2521334367727
 0 <= xp_9_0 <= 17.6043444530644
 0 <= xp_10_0 <= 8.22498060512025
 0 <= xp_10_1 <= 2.74166020170675
 0 <= xp_10_2 <= 2.74166020170675
 0 <= xp_10_3 <= 2.74166020170675
 0 <= xp_11_0 <= 25.8293250581846
 0 <= xp_12_0 <= 5.62761830876649
 0 <= xp_12_1 <= 8.44142746314973
 0 <= xp_12_2 <= 2.81380915438324
 0 <= xp_13_0 <= 15.1512800620636
 0 <= xp_14_0 <= 22.9433669511249
 0 <= xp_15_0 <= 14.2854926299457
 0 <= xp_15_1 <= 14.2854926299457
 0 <= xp_16_0 <= 27.2723041117145
 0 <= xp_17_0 <= 15.9689681923972
 0 <= xp_17_1 <= 3.9922420480993
 0 <= xp_17_2 <= 3.9922420480993
 0 <= xp_18_0 <= 6.83010085337471
 0 <= xp_18_1 <= 13.6602017067494
 0 <= xp_19_0 <= 19.7688130333592
 0 <= xp_20_0 <= 23.5205585725368
 0 <= xp_21_0 <= 3.15050426687355
 0 <= xp_21_1 <= 3.15050426687355
 0 <= xp_21_2 <= 6.30100853374709
 0 <= xp_21_3 <= 6.30100853374709
 0 <= xp_22_0 <= 3.82389449185415
 0 <= xp_22_1 <= 15.2955779674166
 0 <= xp_22_2 <= 3.82389449185415
 0 <= xp_23_0 <= 23.6648564778898
 0 <= xp_24_0 <= 3.07835531419705
 0 <= xp_24_1 <= 3.07835531419705
 0 <= xp_24_2 <= 12.3134212567882
 0 <= xp_25_0 <= 28.1380915438324
 0 <= xp_26_0 <= 18.7587276958883
 0 <= xp_27_0 <= 15.1512800620636
 0 <= xp_28_0 <= 12.4817688130334
 0 <= xp_28_1 <= 12.4817688130334
 0 <= xp_29_0 <= 22.6547711404189
 0 <= xp_30_0 <= 27.9937936384794
 0 <= xp_31_0 <= 3.00620636152056
 0 <= xp_31_1 <= 15.0310318076028
 0 <= xp_32_0 <= 15.8727695888286
 0 <= xp_33_0 <= 19.0473235065943
 0 <= xp_34_0 <= 22.9433669511249
 0 <= xp_35_0 <= 15.7284716834756
 0 <= xp_36_0 <= 18.1815360744763
 0 <= xp_37_0 <= 14.4297905352987
 0 <= xp_38_0 <= 11.9286268425136
 0 <= xp_38_1 <= 5.96431342125679
 0 <= xp_39_0 <= 15.2955779674166
 0 <= xp_40_0 <= 19.6245151280062
 0 <= xp_41_0 <= 20.7788983708301
 0 <= xp_42_0 <= 8.08068269976726
 0 <= xp_42_1 <= 16.1613653995345
 0 <= xp_43_0 <= 17.1714507370054
 0 <= xp_44_0 <= 15.2715283165244
 0 <= xp_44_1 <= 3.05430566330489
 0 <= xp_45_0 <= 15.1512800620636
 0 <= xp_46_0 <= 21.2117920868891
 0 <= xp_47_0 <= 20.2017067494182
 0 <= xp_48_0 <= 9.52366175329713
 0 <= xp_48_1 <= 19.0473235065943
 0 <= xp_49_0 <= 15.0069821567106
 0 <= xp_50_0 <= 16.3056633048875
 0 <= xp_51_0 <= 24.3863460046548
 0 <= xp_52_0 <= 22.4864235841738
 0 <= xp_52_1 <= 4.49728471683476
 0 <= xp_53_0 <= 28.2823894491854
 0 <= xp_54_0 <= 27.8494957331265
 0 <= xp_55_0 <= 21.788983708301
 0 <= xp_56_0 <= 15.2955779674166
 0 <= xp_57_0 <= 18.0372381691233
 0 <= xp_58_0 <= 18.6625290923196
 0 <= xp_58_1 <= 9.33126454615981
 0 <= xp_59_0 <= 27.9937936384794
 0 <= xp_60_0 <= 11.8324282389449
 0 <= xp_60_1 <= 5.91621411947246
 0 <= xp_61_0 <= 26.1179208688906
 0 <= xp_62_0 <= 27.8494957331265
 0 <= xp_63_0 <= 21.7649340574088
 0 <= xp_63_1 <= 4.35298681148177
 0 <= xp_64_0 <= 28.1380915438324
 0 <= xp_65_0 <= 20.3460046547711

End
